NAME : tsp_192_sol.txt
COMMENT : OR-Tools Guided Local Search
TYPE : TOUR
DIMENSION : 50
COST : 5935
STATUS : ROUTING_SUCCESS
GAP : 0.00% (Reference Solution)
TOUR_SECTION
1
46
10
42
17
48
8
2
36
22
9
3
5
41
39
27
49
15
30
7
32
12
26
50
28
19
37
45
29
33
44
14
4
47
21
34
40
24
23
13
25
20
6
16
43
38
31
18
11
35
-1
